# Objective value = 1.9448557059391651e+03
x[0] 0
x[1] 1
x[2] 1
x[3] 0
x[4] 1
x[5] 0
x[6] 1
x[7] 0
x[8] 0
x[9] 0
x[10] 1
x[11] 1
x[12] 1
x[13] 1
x[14] 0
x[15] 0
x[16] 1
x[17] 0
x[18] 1
x[19] 0
x[20] 1
x[21] 1
x[22] 1
x[23] 1
x[24] 1
x[25] 1
x[26] 1
x[27] 1
x[28] 1
x[29] 1
x[30] 0
x[31] 1
x[32] 1
x[33] 0
x[34] 0
x[35] 1
x[36] 0
x[37] 0
x[38] 1
x[39] 1
x[40] 0
x[41] 1
x[42] 0
x[43] 1
x[44] 1
x[45] 1
x[46] 1
x[47] 1
x[48] 1
x[49] 1
x[50] 0
x[51] 0
x[52] 1
x[53] 1
x[54] 0
x[55] 1
x[56] 0
x[57] 0
x[58] 0
x[59] 1
x[60] 0
x[61] 1
x[62] 0
x[63] 1
x[64] 1
x[65] 1
x[66] 1
x[67] 0
x[68] 0
x[69] 0
x[70] 0
x[71] 0
x[72] 1
x[73] 0
x[74] 0
x[75] 0
x[76] 0
x[77] 0
x[78] 0
x[79] 0
x[80] 0
x[81] 0
x[82] 1
x[83] 1
x[84] 1
x[85] 1
x[86] 1
x[87] 1
x[88] 0
x[89] 0
x[90] 0
x[91] 0
x[92] 1
x[93] 0
x[94] 0
x[95] 0
x[96] 0
x[97] 1
x[98] 1
x[99] 1
x[100] 1
x[101] 1
x[102] 0
x[103] 1
x[104] 1
x[105] 0
x[106] 1
x[107] 0
x[108] 0
x[109] 0
x[110] 1
x[111] 1
x[112] 0
x[113] 1
x[114] 1
x[115] 0
x[116] 0
x[117] 1
x[118] 1
x[119] 0
x[120] 1
x[121] 0
x[122] 1
x[123] 1
x[124] 1
x[125] 1
x[126] 0
x[127] 1
x[128] 1
x[129] 0
x[130] 1
x[131] 0
x[132] 1
x[133] 0
x[134] 1
x[135] 0
x[136] 0
x[137] 0
x[138] 1
x[139] 1
x[140] 0
x[141] 0
x[142] 1
x[143] 1
x[144] 1
x[145] 1
x[146] 0
x[147] 1
x[148] 1
x[149] 0
x[150] 1
x[151] 0
x[152] 1
x[153] 0
x[154] 1
x[155] 1
x[156] 0
x[157] 0
x[158] 1
x[159] 0
x[160] 0
x[161] 0
x[162] 1
x[163] 1
x[164] 1
x[165] 1
x[166] 1
x[167] 0
x[168] 1
x[169] 1
x[170] 1
x[171] 1
x[172] 1
x[173] 1
x[174] 1
x[175] 1
x[176] 0
x[177] 0
x[178] 0
x[179] 0
x[180] 0
x[181] 0
x[182] 1
x[183] 0
x[184] 0
x[185] 1
x[186] 0
x[187] 0
x[188] 0
x[189] 1
x[190] 1
x[191] 0
x[192] 1
x[193] 1
x[194] 0
x[195] 1
x[196] 1
x[197] 1
x[198] 0
x[199] 0
x[200] 1
x[201] 1
x[202] 1
x[203] 1
x[204] 0
x[205] 0
x[206] 1
x[207] 1
x[208] 0
x[209] 0
x[210] 1
x[211] 1
x[212] 1
x[213] 1
x[214] 1
x[215] 1
x[216] 1
x[217] 0
x[218] 1
x[219] 0
x[220] 1
x[221] 0
x[222] 0
x[223] 1
x[224] 0
x[225] 0
x[226] 0
x[227] 1
x[228] 1
x[229] 1
x[230] 1
x[231] 0
x[232] 0
x[233] 1
x[234] 1
x[235] 1
x[236] 1
x[237] 0
x[238] 0
x[239] 0
x[240] 0
x[241] 1
x[242] 1
x[243] 1
x[244] 1
x[245] 0
x[246] 1
x[247] 1
x[248] 1
x[249] 1
x[250] 1
x[251] 1
x[252] 0
x[253] 0
x[254] 0
x[255] 1
x[256] 0
x[257] 0
x[258] 1
x[259] 0
x[260] 0
x[261] 0
x[262] 1
x[263] 0
x[264] 1
x[265] 0
x[266] 0
x[267] 1
x[268] 0
x[269] 1
x[270] 1
x[271] 1
x[272] 1
x[273] 0
x[274] 0
x[275] 1
x[276] 1
x[277] 1
x[278] 1
x[279] 1
x[280] 0
x[281] 1
x[282] 1
x[283] 0
x[284] 1
x[285] 0
x[286] 1
x[287] 1
x[288] 0
x[289] 0
x[290] 1
x[291] 0
x[292] 1
x[293] 1
x[294] 1
x[295] 1
x[296] 1
x[297] 1
x[298] 1
x[299] 0
x[300] 0
x[301] 1
x[302] 1
x[303] 0
x[304] 1
x[305] 1
x[306] 0
x[307] 1
x[308] 0
x[309] 1
x[310] 1
x[311] 0
x[312] 0
x[313] 0
x[314] 1
x[315] 1
x[316] 0
x[317] 1
x[318] 1
x[319] 0
x[320] 1
x[321] 1
x[322] 1
x[323] 1
x[324] 0
x[325] 1
x[326] 1
x[327] 0
x[328] 0
x[329] 0
x[330] 0
x[331] 1
x[332] 1
x[333] 0
x[334] 1
x[335] 1
x[336] 1
x[337] 0
x[338] 1
x[339] 1
x[340] 1
x[341] 0
x[342] 1
x[343] 1
x[344] 1
x[345] 1
x[346] 0
x[347] 0
x[348] 1
x[349] 0
x[350] 0
x[351] 0
x[352] 0
x[353] 0
x[354] 1
x[355] 0
x[356] 1
x[357] 0
x[358] 0
x[359] 0
x[360] 0
x[361] 1
x[362] 0
x[363] 1
x[364] 1
x[365] 0
x[366] 0
x[367] 0
x[368] 1
x[369] 0
x[370] 1
x[371] 1
x[372] 0
x[373] 1
x[374] 0
x[375] 1
x[376] 1
x[377] 1
x[378] 1
x[379] 0
x[380] 0
x[381] 0
x[382] 1
x[383] 0
x[384] 1
x[385] 1
x[386] 1
x[387] 1
x[388] 1
x[389] 0
x[390] 0
x[391] 1
x[392] 1
x[393] 0
x[394] 0
x[395] 1
x[396] 1
x[397] 1
x[398] 0
x[399] 1
x[400] 1
x[401] 0
x[402] 0
x[403] 0
x[404] 1
x[405] 0
x[406] 0
x[407] 0
x[408] 0
x[409] 1
x[410] 0
x[411] 0
x[412] 1
x[413] 1
x[414] 0
x[415] 1
x[416] 1
x[417] 1
x[418] 0
x[419] 0
x[420] 0
x[421] 0
x[422] 0
x[423] 0
x[424] 0
x[425] 1
x[426] 1
x[427] 1
x[428] 1
x[429] 0
x[430] 1
x[431] 1
x[432] 0
x[433] 1
x[434] 1
x[435] 1
x[436] 1
x[437] 1
x[438] 1
x[439] 1
x[440] 1
x[441] 1
x[442] 0
x[443] 1
x[444] 1
x[445] 0
x[446] 1
x[447] 0
x[448] 1
x[449] 1
x[450] 0
x[451] 1
x[452] 0
x[453] 0
x[454] 1
x[455] 0
x[456] 0
x[457] 0
x[458] 1
x[459] 1
x[460] 1
x[461] 0
x[462] 0
x[463] 1
x[464] 0
x[465] 1
x[466] 1
x[467] 0
x[468] 0
x[469] 0
x[470] 1
x[471] 0
x[472] 0
x[473] 1
x[474] 0
x[475] 1
x[476] 1
x[477] 1
x[478] 1
x[479] 1
x[480] 0
x[481] 0
x[482] 1
x[483] 0
x[484] 1
x[485] 0
x[486] 1
x[487] 1
x[488] 0
x[489] 1
x[490] 1
x[491] 1
x[492] 0
x[493] 0
x[494] 0
x[495] 0
x[496] 1
x[497] 0
x[498] 0
x[499] 1
x[500] 1
x[501] 1
x[502] 1
x[503] 1
x[504] 1
x[505] 1
x[506] 1
x[507] 0
x[508] 0
x[509] 1
x[510] 1
x[511] 1
x[512] 1
x[513] 1
x[514] 1
x[515] 1
x[516] 1
x[517] 0
x[518] 0
x[519] 1
x[520] 1
x[521] 1
x[522] 1
x[523] 1
x[524] 1
x[525] 1
x[526] 0
x[527] 1
x[528] 1
x[529] 1
x[530] 1
x[531] 1
x[532] 0
x[533] 1
x[534] 1
x[535] 1
x[536] 0
x[537] 1
x[538] 1
x[539] 1
x[540] 1
x[541] 1
x[542] 1
x[543] 1
x[544] 1
x[545] 1
x[546] 0
x[547] 0
x[548] 0
x[549] 1
x[550] 1
x[551] 1
x[552] 1
x[553] 1
x[554] 1
x[555] 1
x[556] 0
x[557] 0
x[558] 0
x[559] 1
x[560] 1
x[561] 1
x[562] 0
x[563] 0
x[564] 0
x[565] 1
x[566] 0
x[567] 1
x[568] 0
x[569] 0
x[570] 1
x[571] 0
x[572] 0
x[573] 0
x[574] 0
x[575] 1
x[576] 0
x[577] 0
x[578] 0
x[579] 1
x[580] 1
x[581] 1
x[582] 0
x[583] 1
x[584] 1
x[585] 0
x[586] 0
x[587] 1
x[588] 1
x[589] 0
x[590] 1
x[591] 0
x[592] 1
x[593] 0
x[594] 0
x[595] 1
x[596] 1
x[597] 1
x[598] 0
x[599] 1
x[600] 0
x[601] 0
x[602] 1
x[603] 1
x[604] 1
x[605] 1
x[606] 0
x[607] 1
x[608] 1
x[609] 1
x[610] 1
x[611] 1
x[612] 1
x[613] 0
x[614] 1
x[615] 1
x[616] 0
x[617] 1
x[618] 1
x[619] 0
x[620] 0
x[621] 1
x[622] 1
x[623] 0
x[624] 0
x[625] 1
x[626] 1
x[627] 0
x[628] 0
x[629] 0
x[630] 1
x[631] 1
x[632] 0
x[633] 1
x[634] 1
x[635] 1
x[636] 1
x[637] 1
x[638] 1
x[639] 1
x[640] 1
x[641] 1
x[642] 1
x[643] 0
x[644] 0
x[645] 0
x[646] 1
x[647] 1
x[648] 1
x[649] 1
x[650] 0
x[651] 0
x[652] 1
x[653] 1
x[654] 0
x[655] 1
x[656] 0
x[657] 1
x[658] 1
x[659] 1
x[660] 0
x[661] 0
x[662] 1
x[663] 1
x[664] 0
x[665] 0
x[666] 1
x[667] 1
x[668] 0
x[669] 1
x[670] 0
x[671] 0
x[672] 1
x[673] 1
x[674] 1
x[675] 0
x[676] 1
x[677] 0
x[678] 0
x[679] 1
x[680] 1
x[681] 0
x[682] 1
x[683] 0
x[684] 1
x[685] 1
x[686] 1
x[687] 1
x[688] 1
x[689] 1
x[690] 1
x[691] 0
x[692] 1
x[693] 1
x[694] 1
x[695] 1
x[696] 1
x[697] 1
x[698] 1
x[699] 1
x[700] 0
x[701] 1
x[702] 1
x[703] 0
x[704] 1
x[705] 0
x[706] 1
x[707] 1
x[708] 0
x[709] 0
x[710] 1
x[711] 0
x[712] 1
x[713] 1
x[714] 1
x[715] 0
x[716] 1
x[717] 1
x[718] 0
x[719] 0
x[720] 1
x[721] 0
x[722] 1
x[723] 1
x[724] 1
x[725] 0
x[726] 1
x[727] 1
x[728] 0
x[729] 1
x[730] 1
x[731] 0
x[732] 1
x[733] 0
x[734] 0
x[735] 0
x[736] 0
x[737] 0
x[738] 1
x[739] 0
x[740] 1
x[741] 0
x[742] 1
x[743] 1
x[744] 1
x[745] 1
x[746] 1
x[747] 1
x[748] 0
x[749] 1
x[750] 0
x[751] 1
x[752] 0
x[753] 0
x[754] 1
x[755] 0
x[756] 0
x[757] 1
x[758] 0
x[759] 0
x[760] 0
x[761] 1
x[762] 0
x[763] 0
x[764] 1
x[765] 1
x[766] 1
x[767] 0
x[768] 1
x[769] 0
x[770] 0
x[771] 0
x[772] 1
x[773] 0
x[774] 0
x[775] 1
x[776] 1
x[777] 0
x[778] 1
x[779] 0
x[780] 1
x[781] 1
x[782] 1
x[783] 1
x[784] 1
x[785] 0
x[786] 1
x[787] 1
x[788] 1
x[789] 0
x[790] 1
x[791] 0
x[792] 0
x[793] 1
x[794] 1
x[795] 0
x[796] 0
x[797] 1
x[798] 0
x[799] 0
x[800] 0
x[801] 0
x[802] 0
x[803] 1
x[804] 1
x[805] 0
x[806] 0
x[807] 0
x[808] 0
x[809] 0
x[810] 0
x[811] 1
x[812] 1
x[813] 1
x[814] 0
x[815] 1
x[816] 0
x[817] 0
x[818] 1
x[819] 0
x[820] 0
x[821] 1
x[822] 0
x[823] 1
x[824] 0
x[825] 0
x[826] 0
x[827] 1
x[828] 1
x[829] 1
x[830] 1
x[831] 1
x[832] 0
x[833] 0
x[834] 0
x[835] 1
x[836] 1
x[837] 0
x[838] 1
x[839] 0
x[840] 0
x[841] 0
x[842] 0
x[843] 0
x[844] 1
x[845] 1
x[846] 0
x[847] 1
x[848] 1
x[849] 1
x[850] 0
x[851] 1
x[852] 1
x[853] 1
x[854] 0
x[855] 0
x[856] 1
x[857] 1
x[858] 0
x[859] 1
x[860] 1
x[861] 0
x[862] 0
x[863] 1
x[864] 0
x[865] 0
x[866] 1
x[867] 0
x[868] 1
x[869] 0
x[870] 0
x[871] 0
x[872] 0
x[873] 0
x[874] 1
x[875] 1
x[876] 1
x[877] 1
x[878] 0
x[879] 1
x[880] 0
x[881] 1
x[882] 1
x[883] 1
x[884] 1
x[885] 1
x[886] 0
x[887] 0
x[888] 1
x[889] 0
x[890] 1
x[891] 0
x[892] 1
x[893] 0
x[894] 1
x[895] 1
x[896] 0
x[897] 0
x[898] 0
x[899] 1
x[900] 1
x[901] 0
x[902] 0
x[903] 1
x[904] 1
x[905] 0
x[906] 0
x[907] 1
x[908] 1
x[909] 0
x[910] 1
x[911] 1
x[912] 0
x[913] 0
x[914] 0
x[915] 0
x[916] 1
x[917] 1
x[918] 1
x[919] 0
x[920] 1
x[921] 0
x[922] 1
x[923] 1
x[924] 1
x[925] 0
x[926] 1
x[927] 0
x[928] 1
x[929] 1
x[930] 1
x[931] 1
x[932] 1
x[933] 0
x[934] 0
x[935] 0
x[936] 1
x[937] 0
x[938] 1
x[939] 0
x[940] 1
x[941] 0
x[942] 0
x[943] 0
x[944] 0
x[945] 1
x[946] 1
x[947] 1
x[948] 1
x[949] 1
x[950] 0
x[951] 1
x[952] 1
x[953] 1
x[954] 1
x[955] 1
x[956] 0
x[957] 0
x[958] 0
x[959] 1
x[960] 0
x[961] 1
x[962] 1
x[963] 0
x[964] 1
x[965] 1
x[966] 1
x[967] 1
x[968] 1
x[969] 1
x[970] 0
x[971] 1
x[972] 0
x[973] 1
x[974] 0
x[975] 0
x[976] 0
x[977] 1
x[978] 0
x[979] 0
x[980] 1
x[981] 0
x[982] 0
x[983] 0
x[984] 0
x[985] 0
x[986] 0
x[987] 0
x[988] 0
x[989] 1
x[990] 1
x[991] 1
x[992] 1
x[993] 0
x[994] 1
x[995] 1
x[996] 0
x[997] 0
x[998] 0
x[999] 1
